120
150
45
60
45
52
44
60
46
54
50
50
56
47
50
59
40
55
55
51
60
43
56
49
47
47
45
55
47
48
46
50
54
44
48
51
51
46
50
54
46
44
59
49
58
46
60
56
54
44
43
56
43
60
44
51
52
49
53
52
49
46
45
40
59
44
47
46
51
53
43
47
60
40
44
51
55
41
59
57
45
50
58
50
54
53
60
45
56
45
49
48
45
43
42
56
41
53
58
46
60
44
60
45
46
46
56
49
47
47
56
57
47
46
45
56
41
53
45
48
46
56
